N: 200
R: 10000
Capacities: 174844
------
Total value: 1289827
Total weight: 174780
Packed Items: [51, 55, 56, 58, 66, 68, 70, 72, 73, 74, 75, 78, 79, 81, 84, 85, 87, 88, 90, 92, 94, 95, 96, 98, 100, 101, 102, 103, 104, 105, 106, 107, 108, 109, 110, 111, 112, 113, 114, 115, 116, 117, 118, 119, 120, 121, 122, 123, 124, 125, 126, 127, 128, 129, 130, 131, 132, 133, 134, 135, 136, 137, 138, 139, 140, 141, 142, 143, 144, 145, 146, 147, 148, 149, 306, 308, 316, 318, 320, 322, 323, 324, 325, 328, 329, 331, 334, 335, 337, 338, 340, 342, 344, 345, 346, 348, 350, 351, 352, 353, 354, 355, 356, 357, 358, 359, 360, 361, 362, 363, 364, 365, 366, 367, 368, 369, 370, 371, 372, 373, 374, 375, 376, 377, 378, 379, 380, 381, 382, 383, 384, 385, 386, 387, 388, 389, 390, 391, 392, 393, 394, 395, 396, 397, 398, 399, 601, 605, 606, 608, 616, 618, 620, 622, 623, 624, 625, 628, 629, 631, 634, 635, 637, 638, 640, 642, 644, 645, 646, 648, 652, 655, 656, 657, 658, 662, 664, 670, 672, 674, 675, 676, 677, 678, 679, 680, 681, 683, 684, 685, 689, 691, 692, 694, 696, 698, 700, 701, 702, 703, 704, 705, 706, 707, 708, 709, 710, 711, 712, 713, 714, 715, 716, 717, 718, 719, 720, 721, 722, 723, 724, 725, 726, 727, 728, 729, 730, 731, 732, 733, 734, 735, 736, 737, 738, 739, 740, 741, 742, 743, 744, 745, 746, 747, 748, 749, 750, 751, 752, 753, 754, 755, 756, 757, 758, 759, 760, 761, 762, 763, 764, 765, 766, 767, 768, 769, 770, 771, 772, 773, 774, 775, 776, 777, 778, 779, 780, 781, 782, 783, 784, 785, 786, 787, 788, 789, 790, 791, 792, 793, 794, 795, 796, 797, 798, 799, 1101, 1105, 1106, 1108, 1116, 1118, 1120, 1122, 1123, 1124, 1125, 1128, 1129, 1131, 1134, 1135, 1137, 1138, 1140, 1142, 1144, 1145, 1146, 1148, 1152, 1155, 1156, 1157, 1158, 1162, 1164, 1170, 1172, 1174, 1175, 1176, 1177, 1178, 1180, 1181, 1184, 1189, 1200, 1201, 1202, 1203, 1204, 1205, 1206, 1207, 1208, 1209, 1210, 1211, 1212, 1213, 1214, 1215, 1216, 1217, 1218, 1219, 1220, 1221, 1222, 1223, 1224, 1225, 1226, 1227, 1228, 1229, 1230, 1231, 1232, 1233, 1234, 1235, 1236, 1237, 1238, 1239, 1240, 1241, 1242, 1243, 1244, 1245, 1246, 1247, 1248, 1249, 1250, 1251, 1252, 1253, 1254, 1255, 1256, 1257, 1258, 1259, 1260, 1261, 1262, 1263, 1264, 1265, 1266, 1267, 1268, 1269, 1270, 1271, 1272, 1273, 1274, 1275, 1276, 1277, 1278, 1279, 1280, 1281, 1282, 1283, 1284, 1285, 1286, 1287, 1288, 1289, 1290, 1291, 1292, 1293, 1294, 1295, 1296, 1297, 1298, 1299, 1701, 1705, 1706, 1708, 1716, 1718, 1720, 1722, 1723, 1724, 1725, 1728, 1729, 1731, 1734, 1735, 1737, 1738, 1740, 1742, 1744, 1745, 1746, 1748, 1752, 1755, 1756, 1757, 1758, 1762, 1764, 1770, 1772, 1774, 1775, 1776, 1777, 1778, 1779, 1780, 1781, 1783, 1784, 1785, 1789, 1791, 1792, 1794, 1796, 1798, 1801, 1803, 1805, 1806, 1807, 1810, 1813, 1814, 1815, 1817, 1818, 1819, 1823, 1825, 1828, 1832, 1833, 1834, 1837, 1842, 1844, 1845, 1846, 1847, 1851, 1854, 1856, 1857, 1861, 1862, 1863, 1864, 1867, 1869, 1873, 1874, 1875, 1878, 1880, 1881, 1890, 1892, 1894, 1900, 1901, 1902, 1903, 1904, 1905, 1906, 1907, 1908, 1909, 1910, 1911, 1912, 1913, 1914, 1915, 1916, 1917, 1918, 1919, 1920, 1921, 1922, 1923, 1924, 1925, 1926, 1927, 1928, 1929, 1930, 1931, 1932, 1933, 1934, 1935, 1936, 1937, 1938, 1939, 1940, 1941, 1942, 1943, 1944, 1945, 1946, 1947, 1948, 1949, 1950, 1951, 1952, 1953, 1954, 1955, 1956, 1957, 1958, 1959, 1960, 1961, 1962, 1963, 1964, 1965, 1966, 1967, 1968, 1969, 1970, 1971, 1972, 1973, 1974, 1975, 1976, 1977, 1978, 1979, 1980, 1981, 1982, 1983, 1984, 1985, 1986, 1987, 1988, 1989, 1990, 1991, 1992, 1993, 1994, 1995, 1996, 1997, 1998, 1999, 2000, 2001, 2002, 2003, 2004, 2005, 2006, 2007, 2008, 2009, 2010, 2011, 2012, 2013, 2014, 2015, 2016, 2017, 2018, 2019, 2020, 2021, 2022, 2023, 2024, 2025, 2026, 2027, 2028, 2029, 2030, 2031, 2032, 2033, 2034, 2035, 2036, 2037, 2038, 2039, 2040, 2041, 2042, 2043, 2044, 2045, 2046, 2047, 2048, 2049, 2050, 2051, 2052, 2053, 2054, 2055, 2056, 2057, 2058, 2059, 2060, 2061, 2062, 2063, 2064, 2065, 2066, 2067, 2068, 2069, 2070, 2071, 2072, 2073, 2074, 2075, 2076, 2077, 2078, 2079, 2080, 2081, 2082, 2083, 2084, 2085, 2086, 2087, 2088, 2089, 2090, 2091, 2092, 2093, 2094, 2095, 2096, 2097, 2098, 2099, ]
Packed Weights: [161, 115, 69, 23, 207, 230, 184, 207, 92, 207, 138, 46, 184, 138, 23, 230, 138, 184, 138, 69, 184, 207, 207, 23, 63, 35, 49, 30, 25, 56, 70, 25, 5, 25, 28, 42, 15, 20, 42, 35, 63, 56, 56, 28, 50, 56, 35, 35, 42, 28, 45, 42, 40, 15, 35, 50, 50, 70, 42, 49, 20, 42, 35, 63, 50, 40, 35, 21, 14, 45, 21, 35, 5, 14, 693, 231, 2079, 2310, 1848, 2079, 924, 2079, 1386, 462, 1848, 1386, 231, 2310, 1386, 1848, 1386, 693, 1848, 2079, 2079, 231, 693, 357, 539, 306, 255, 616, 770, 255, 51, 255, 308, 462, 153, 204, 462, 357, 693, 616, 616, 308, 510, 616, 385, 385, 462, 308, 459, 462, 408, 153, 357, 510, 510, 770, 462, 539, 204, 462, 357, 693, 510, 408, 357, 231, 154, 459, 231, 385, 51, 154, 161, 115, 69, 23, 207, 230, 184, 207, 92, 207, 138, 46, 184, 138, 23, 230, 138, 184, 138, 69, 184, 207, 207, 23, 138, 46, 207, 184, 69, 46, 46, 46, 161, 46, 46, 161, 69, 184, 69, 92, 92, 230, 92, 92, 207, 207, 184, 69, 46, 92, 63, 35, 49, 30, 25, 56, 70, 25, 5, 25, 28, 42, 15, 20, 42, 35, 63, 56, 56, 28, 50, 56, 35, 35, 42, 28, 45, 42, 40, 15, 35, 50, 50, 70, 42, 49, 20, 42, 35, 63, 50, 40, 35, 21, 14, 45, 21, 35, 5, 14, 7, 7, 5, 45, 14, 20, 50, 5, 49, 10, 5, 56, 70, 63, 25, 35, 10, 45, 30, 30, 50, 35, 7, 10, 5, 7, 42, 70, 15, 21, 49, 40, 35, 5, 25, 40, 5, 15, 30, 28, 21, 70, 35, 30, 35, 10, 45, 42, 35, 50, 1617, 1155, 693, 231, 2079, 2310, 1848, 2079, 924, 2079, 1386, 462, 1848, 1386, 231, 2310, 1386, 1848, 1386, 693, 1848, 2079, 2079, 231, 1386, 462, 2079, 1848, 693, 462, 462, 462, 1617, 462, 462, 1617, 693, 1848, 924, 924, 924, 2079, 693, 357, 539, 306, 255, 616, 770, 255, 51, 255, 308, 462, 153, 204, 462, 357, 693, 616, 616, 308, 510, 616, 385, 385, 462, 308, 459, 462, 408, 153, 357, 510, 510, 770, 462, 539, 204, 462, 357, 693, 510, 408, 357, 231, 154, 459, 231, 385, 51, 154, 77, 77, 51, 459, 154, 204, 510, 51, 539, 102, 51, 616, 770, 693, 255, 357, 102, 459, 306, 306, 510, 357, 77, 102, 51, 77, 462, 770, 153, 231, 539, 408, 385, 51, 255, 408, 51, 153, 306, 308, 231, 770, 385, 306, 385, 102, 459, 462, 357, 510, 161, 115, 69, 23, 207, 230, 184, 207, 92, 207, 138, 46, 184, 138, 23, 230, 138, 184, 138, 69, 184, 207, 207, 23, 138, 46, 207, 184, 69, 46, 46, 46, 161, 46, 46, 161, 69, 184, 69, 92, 92, 230, 92, 92, 207, 207, 184, 69, 46, 92, 230, 161, 207, 115, 69, 184, 207, 230, 46, 23, 184, 92, 207, 69, 46, 69, 46, 92, 46, 230, 69, 230, 161, 69, 161, 92, 92, 138, 23, 69, 115, 46, 184, 46, 92, 207, 207, 184, 230, 138, 115, 138, 161, 63, 35, 49, 30, 25, 56, 70, 25, 5, 25, 28, 42, 15, 20, 42, 35, 63, 56, 56, 28, 50, 56, 35, 35, 42, 28, 45, 42, 40, 15, 35, 50, 50, 70, 42, 49, 20, 42, 35, 63, 50, 40, 35, 21, 14, 45, 21, 35, 5, 14, 7, 7, 5, 45, 14, 20, 50, 5, 49, 10, 5, 56, 70, 63, 25, 35, 10, 45, 30, 30, 50, 35, 7, 10, 5, 7, 42, 70, 15, 21, 49, 40, 35, 5, 25, 40, 5, 15, 30, 28, 21, 70, 35, 30, 35, 10, 45, 42, 35, 50, 7, 10, 63, 5, 25, 21, 5, 28, 7, 14, 20, 40, 10, 7, 49, 35, 49, 40, 20, 40, 30, 70, 70, 15, 25, 35, 70, 45, 28, 10, 5, 63, 35, 15, 49, 35, 14, 70, 7, 40, 45, 40, 70, 30, 25, 42, 14, 25, 56, 40, 50, 56, 56, 21, 35, 70, 5, 56, 49, 7, 56, 70, 14, 40, 56, 14, 14, 25, 30, 21, 5, 35, 49, 35, 20, 30, 7, 14, 40, 49, 45, 10, 25, 7, 50, 30, 35, 28, 35, 50, 45, 49, 35, 45, 35, 42, 56, 20, 25, 21, ]
Time Consuming: 180.07572221755981